container_length = 3000;
container_width = 4500;
container_height = 1500;
n = 7;
boxes = [|400, 375, 300, 24
         |400, 400, 150, 10
         |300, 150, 200, 11
         |900, 200, 275, 14
         |800, 150, 275, 6
         |1500, 150, 200, 20
         |900, 200, 200, 15|];
